Instance name : SB_bar-n100-6
Authors : 
Date : 
Reference 
Solution
Route 1 : 22 43 93 47 72 97 30 1 48 34 51 7 57 98 84 44 80 9 13 94 26 63 76 49 2 52 59 10 60 24 50 99 100 74 
Route 2 : 37 4 29 54 32 87 82 8 79 35 45 27 77 36 33 86 83 95 14 85 64 58 39 89 
Route 3 : 20 70 41 16 66 12 91 62 21 42 19 71 6 92 56 69 23 73 
Route 4 : 31 81 25 38 40 88 28 18 75 90 68 5 17 67 78 3 11 61 53 15 55 46 65 96 
